4
30
82
40	32
1	2	4	6	23	3	
2	1	15	2	
3	1	5	14	
4	4	7	13	6	13	8	10	7	4	
5	2	27	3	15	2	
6	4	7	11	8	6	19	4	15	3	
7	3	8	12	13	3	17	2	
8	4	7	11	5	7	21	4	13	3	
9	3	13	8	20	3	14	3	
10	4	7	11	7	5	13	2	9	2	
11	3	13	4	31	3	15	3	
12	1	6	6	
13	4	8	14	6	12	7	7	24	4	
14	1	21	3	
15	4	6	12	15	6	12	4	4	4	
16	3	15	4	6	4	23	2	
17	1	7	13	
18	4	6	9	5	8	8	5	6	4	
19	3	6	5	5	5	4	5	
20	2	7	9	6	8	
21	2	6	10	9	4	
22	4	6	8	32	4	20	4	29	2	
23	1	11	5	
24	1	27	2	
25	3	6	13	6	9	8	5	
26	2	7	10	12	5	
27	4	6	14	6	5	23	4	14	4	
28	3	11	4	28	3	5	2	
29	4	7	12	5	12	5	9	15	7	
30	4	14	5	14	4	4	4	21	3	
